(set-logic QF_S)
(set-option :produce-models true)

(declare-fun temp2_623_634 () String)
(declare-fun temp1_623_634 () String)
(declare-fun temp_623_649 () String)
(declare-fun temp1_623_644 () String)
(declare-fun s623 () String)
(declare-fun s639 () String)
(declare-fun temp2_623_644 () String)
(declare-fun s644 () String)
(declare-fun s649 () String)
(declare-fun temp2_623_639 () String)
(declare-fun temp1_623_639 () String)
(declare-fun s634 () String)
(declare-fun temp2_623_649 () String)
(declare-fun temp1_623_649 () String)

(assert (not (= s649 temp2_623_649) ) )
(assert (= (str.++ temp1_623_634 temp2_623_634) s623) )
(assert (= (str.len temp1_623_644) (str.len s644) ) )
(assert (not (= s634 temp1_623_634) ) )
(assert (= (str.++ temp1_623_649 temp2_623_649) s623) )
(assert (= (str.++ temp1_623_639 temp2_623_639) s623) )
(assert (not (= s639 temp2_623_639) ) )
(assert (not (= s644 temp1_623_644) ) )
(assert (= (str.len temp2_623_639) (str.len s639) ) )
(assert (= (str.len temp1_623_634) (str.len s634) ) )
(assert (= (str.len temp2_623_649) (str.len s649) ) )
(assert (= (str.++ temp_623_649 s649) s623) )
(assert (= (str.++ temp1_623_644 temp2_623_644) s623) )


(check-sat)
(get-model)
